(set-logic ALL)
(declare-fun i1 () Int)
(declare-fun it193 () Int)
(declare-fun it194 () Int)
(declare-fun it132 () Int)
(declare-fun it195 () Int)
(declare-fun it196 () Int)
(declare-fun it197 () Int)
(declare-fun it198 () Int)
(declare-fun it199 () Int)
(declare-fun it301 () Int)
(declare-fun it302 () Int)
(declare-fun it303 () Int)
(declare-fun it304 () Int)
(declare-fun it305 () Int)
(declare-fun it306 () Int)
(declare-fun it307 () Int)
(declare-fun it308 () Int)
(declare-fun it310 () Int)
(declare-fun it311 () Int)
(declare-fun it312 () Int)
(declare-fun it313 () Int)
(declare-fun it314 () Int)
(declare-fun it315 () Int)
(declare-fun it316 () Int)
(declare-fun it324 () Int)
(declare-fun it325 () Int)
(declare-fun it326 () Int)
(declare-fun it327 () Int)
(declare-fun it328 () Int)
(declare-fun it329 () Int)
(declare-fun it330 () Int)
(declare-fun it331 () Int)
(declare-fun it215 () Int)
(declare-fun it340 () Int)
(declare-fun it341 () Int)
(declare-fun it342 () Int)
(declare-fun it343 () Int)
(declare-fun it344 () Int)
(declare-fun it345 () Int)
(declare-fun it346 () Int)
(declare-fun it348 () Int)
(declare-fun it349 () Int)
(declare-fun it350 () Int)
(declare-fun it351 () Int)
(declare-fun it352 () Int)
(declare-fun it353 () Int)
(declare-fun it354 () Int)
(declare-fun it362 () Int)
(declare-fun it363 () Int)
(declare-fun it364 () Int)
(declare-fun it365 () Int)
(declare-fun it366 () Int)
(declare-fun it367 () Int)
(declare-fun it368 () Int)
(declare-fun it369 () Int)
(declare-fun it372 () Int)
(declare-fun it373 () Int)
(declare-fun it374 () Int)
(declare-fun it375 () Int)
(declare-fun it376 () Int)
(declare-fun it377 () Int)
(declare-fun it165 () Int)
(declare-fun it378 () Int)
(declare-fun it166 () Int)
(assert (= (+ i1 (- 1)) 0))
(assert (= (+ it193 (- 4)) 0))
(assert (= (+ it194 (- 1)) 0))
(assert (= (+ it195 (* it132 (- 1))) 0))
(assert (= (+ it196 (- 1)) 0))
(assert (= (+ it197 (- 1)) 0))
(assert (= (+ it198 (* it132 (- 1))) 0))
(assert (= (+ it199 (- 1)) 0))
(assert (and (>= (+ it193 (- 4)) 0)
     (>= (+ (* it194 (- 1)) (* it301 (- 1)) it195 1) 0)
     (>= (+ it301 (- 1)) 0)
     (>= (+ (* it197 (- 1)) (* it301 (- 1)) it198 1) 0)
     (>= (+ (* it193 (- 1)) 4) 0)))
(assert (= (+ it302 (* it193 (- 1))) 0))
(assert (= (+ (* it194 (- 1)) (* it301 (- 1)) it303) 0))
(assert (= (+ it304 (* it195 (- 1))) 0))
(assert (= (+ it305 (* it196 (- 1))) 0))
(assert (= (+ (* it197 (- 1)) (* it301 (- 1)) it306) 0))
(assert (= (+ it307 (* it198 (- 1))) 0))
(assert (= (+ it308 (* it199 (- 1))) 0))
(assert (and (< (+ it304 (* it303 (- 1))) 0)
     (< (+ it307 (* it306 (- 1))) 0)
     (= (+ it302 (- 4)) 0)))
(assert (= (+ it310 (- 2)) 0))
(assert (= it311 0))
(assert (= (+ (* it304 (- 1)) it312) 0))
(assert (= (+ (* it305 (- 1)) it313) 0))
(assert (= (+ it314 (- 1)) 0))
(assert (= (+ (* it307 (- 1)) it315) 0))
(assert (= (+ (* it308 (- 1)) it316) 0))
(assert (and (>= (+ (* it310 (- 1)) 2) 0)
     (>= (+ it310 (- 2)) 0)
     (>= (+ it315 (* it314 (- 1)) (* it324 (- 1)) 1) 0)
     (>= (+ it324 (- 1)) 0)
     (>= (+ (* it311 (- 1)) it312 (* it324 (- 1)) 1) 0)))
(assert (= (+ (* it310 (- 1)) it325) 0))
(assert (= (+ it326 (* it311 (- 1)) (* it324 (- 1))) 0))
(assert (= (+ it327 (* it312 (- 1))) 0))
(assert (= (+ (+ 0 (* it311 it324 (- 2)))
      (* (exp it324 2) (+ 0 (- 1)))
      (+ 0 (* it313 (- 2)))
      (+ 0 (* it328 2))
      (+ 0 it324))
   (+ 0 0)))
(assert (= (+ it329 (* it314 (- 1)) (* it324 (- 1))) 0))
(assert (= (+ (* it315 (- 1)) it330) 0))
(assert (= (+ (+ 0 (* it314 it324 (- 2)))
      (* (exp it324 2) (+ 0 (- 1)))
      (+ 0 (* it316 (- 2)))
      (+ 0 (* it331 2))
      (+ 0 it324))
   (+ 0 0)))
(assert (and (>= (+ it325 (- 2)) 0)
     (>= (+ it215 (- 1)) 0)
     (>= (+ (* it325 (- 1)) 2) 0)
     (> (+ it329 (* it330 (- 1))) 0)
     (>= (+ (* it326 (- 1)) it327 (* it215 (- 1)) 1) 0)))
(assert (= (+ it340 (* it325 (- 1))) 0))
(assert (= (+ (* it326 (- 1)) it341 (* it215 (- 1))) 0))
(assert (= (+ (* it327 (- 1)) it342) 0))
(assert (= (+ (+ 0 (* it343 2))
      (* (exp it215 2) (+ 0 (- 1)))
      (+ 0 (* it326 it215 (- 2)))
      (+ 0 (* it328 (- 2)))
      (+ 0 it215))
   (+ 0 0)))
(assert (= (+ (* it329 (- 1)) it344) 0))
(assert (= (+ (* it330 (- 1)) it345) 0))
(assert (= (+ it346 (* it331 (- 1))) 0))
(assert (and (< (+ (* it344 (- 1)) it345) 0)
     (= (+ it340 (- 2)) 0)
     (< (+ (* it341 (- 1)) it342) 0)))
(assert (= (+ it348 (- 5)) 0))
(assert (= (+ it349 (- 1)) 0))
(assert (= (+ it350 (* it342 (- 1))) 0))
(assert (= (+ (* it343 (- 1)) it351) 0))
(assert (= (+ it352 (- 1)) 0))
(assert (= (+ it353 (* it345 (- 1))) 0))
(assert (= (+ (* it346 (- 1)) it354) 0))
(assert (and (>= (+ (* it362 (- 1)) it353 (* it352 (- 1)) 1) 0)
     (>= (+ (* it348 (- 1)) 5) 0)
     (>= (+ it362 (- 1)) 0)
     (>= (+ (* it362 (- 1)) it350 (* it349 (- 1)) 1) 0)
     (>= (+ it348 (- 5)) 0)))
(assert (= (+ it363 (* it348 (- 1))) 0))
(assert (= (+ (* it362 (- 1)) it364 (* it349 (- 1))) 0))
(assert (= (+ (* it350 (- 1)) it365) 0))
(assert (= (+ (+ 0 it366) (* (exp 2 it362) (+ 0 it351) (+ 0 (- 1))))
   (+ 0 0)))
(assert (= (+ (* it362 (- 1)) it367 (* it352 (- 1))) 0))
(assert (= (+ (* it353 (- 1)) it368) 0))
(assert (= (+ (+ 0 it369) (* (exp 2 it362) (+ 0 it354) (+ 0 (- 1))))
   (+ 0 0)))
(assert (and (< (+ (* it367 (- 1)) it368) 0)
     (< (+ (* it364 (- 1)) it365) 0)
     (= (+ it363 (- 5)) 0)))
(assert (= (+ it372 (- 3)) 0))
(assert (= (+ it373 (* it365 (- 1))) 0))
(assert (= (+ (* it366 (- 1)) it374) 0))
(assert (= (+ it375 (* it368 (- 1))) 0))
(assert (= (+ (* it369 (- 1)) it376) 0))
(assert (= (+ (* it165 (- 1)) it377) 0))
(assert (= (+ (* it166 (- 1)) it378) 0))
(assert (and (= (+ it372 (- 3)) 0) (>= it373 0) (>= (+ it375 (- 1)) 0)))
(check-sat)
